(declare-const a Real)
(declare-const b Real)
(declare-const c Real)
(declare-const d Real)
(assert (= (+ a b c d) 1))
(assert (>= (+ a (* -1 b)) 0))
(assert (>= (+ b (* -1 c)) 0))
(assert (>= (+ c (* -1 d)) 0))
(assert (> d 0))
(assert (not (<= (+ -1 (* (pow b b) (pow d d) (pow (* (pow (+ a c) -1) (+ (pow a 2) (pow c 2))) (+ a c)) (+ a (* 2 b) (* 3 c) (* 4 d)))) 0)))
(check-sat)
(get-model)
(exit)